
//Numero de berços
nbSections = 2;

//Numero de Recuperadores
nbReclaimer = 2;

//Numero de Embarcações
nbVessel = 3;

//Numero de Tarefas
nbTask = 4;

//Prioridade dos navios
weight = [5 6 6];

//Tempo de chegada dos navios
ArrivalTime = [1 1 4];

//Comprimento dos navios
L = [4 2 3];

//Comprimento dos berços
Ls = [5 4];

//Periodos de Mare alta

B = [0 3 9];
E = [1 7 12];

//Tempo que a tarefa ocupa no pátio
P = [4 1 2 4];

// O caminho de ferro no qual cada recuperador está montado
Q = [1 2];

//Comprimento das tarefas no patio
len = [2 1 1 2];

//Navio designado para cada estoque
AssVessel=[1 1 2 3];

//Distância entre recuperador e o berço		
dist=[[0 0],
      [1 1]];

//Bloco de locação de cada posição dos estoques
//D = [1 1 1 2 2 2];

//Posição vertical de cada posição dos estoques em um pátio
//vertical=[1 2 3 1 2 3];
